
-15.55
-15.1
-14.65
-13.55
-12.0
-10.7
-9.5
-7.9
-6.5
-5.85
-5.15
-4.5
-4.0
-3.5
-3.2
-3.1
-2.95
-2.9
-2.85
-2.85
-2.8
-2.75
-2.75
-2.75
-2.7
-2.7
-2.65
-2.65
-2.65
-2.65
-2.65
-2.65
-2.65
-2.65
-2.65
-2.65
-2.65
-2.65
-2.65
-2.65
-2.65